p cnf 100 1
100 0
w 1 0.0827345
w 2 1 1
w 2 -1 0
w 3 2 0.596025
w 3 -2 0.938586
w 4 3 0.399773
w 4 -3 0.131119
w 5 4 0.497476
w 5 -4 0.75223
w 6 5 0.442945
w 6 -5 0.948239
w 7 6 0.363511
w 7 -6 0.714072
w 8 7 0
w 8 -7 1
w 9 8 1
w 9 -8 0
w 10 9 1
w 10 -9 0
w 11 1 1
w 11 -1 0
w 12 11 2 1
w 12 11 -2 0
w 12 -11 2 1
w 12 -11 -2 1
w 13 12 3 0
w 13 12 -3 1
w 13 -12 3 0
w 13 -12 -3 0
w 14 13 4 1
w 14 13 -4 0
w 14 -13 4 1
w 14 -13 -4 0
w 15 14 5 1
w 15 14 -5 1
w 15 -14 5 0
w 15 -14 -5 1
w 16 15 6 0.49994
w 16 15 -6 0.0618689
w 16 -15 6 0.383937
w 16 -15 -6 0.481492
w 17 16 7 1
w 17 16 -7 0
w 17 -16 7 1
w 17 -16 -7 0
w 18 17 8 0.0698795
w 18 17 -8 0.879948
w 18 -17 8 0.378308
w 18 -17 -8 0.207842
w 19 18 9 1
w 19 18 -9 0
w 19 -18 9 1
w 19 -18 -9 1
w 20 19 10 1
w 20 19 -10 0
w 20 -19 10 0
w 20 -19 -10 0
w 21 11 1
w 21 -11 0
w 22 21 12 1
w 22 21 -12 1
w 22 -21 12 1
w 22 -21 -12 0
w 23 22 13 0
w 23 22 -13 0
w 23 -22 13 1
w 23 -22 -13 0
w 24 23 14 0.213899
w 24 23 -14 0.582277
w 24 -23 14 0.0599079
w 24 -23 -14 0.191053
w 25 24 15 0
w 25 24 -15 1
w 25 -24 15 1
w 25 -24 -15 0
w 26 25 16 1
w 26 25 -16 0
w 26 -25 16 1
w 26 -25 -16 1
w 27 26 17 1
w 27 26 -17 1
w 27 -26 17 1
w 27 -26 -17 0
w 28 27 18 0.270521
w 28 27 -18 0.146507
w 28 -27 18 0.196629
w 28 -27 -18 0.114501
w 29 28 19 1
w 29 28 -19 0
w 29 -28 19 1
w 29 -28 -19 0
w 30 29 20 0
w 30 29 -20 0
w 30 -29 20 1
w 30 -29 -20 1
w 31 21 1
w 31 -21 0
w 32 31 22 1
w 32 31 -22 0
w 32 -31 22 0
w 32 -31 -22 1
w 33 32 23 0
w 33 32 -23 1
w 33 -32 23 1
w 33 -32 -23 1
w 34 33 24 0.955056
w 34 33 -24 0.354555
w 34 -33 24 0.791327
w 34 -33 -24 0.921474
w 35 34 25 0
w 35 34 -25 0
w 35 -34 25 0
w 35 -34 -25 1
w 36 35 26 1
w 36 35 -26 1
w 36 -35 26 0
w 36 -35 -26 1
w 37 36 27 0.535628
w 37 36 -27 0.837398
w 37 -36 27 0.214274
w 37 -36 -27 0.0790039
w 38 37 28 0
w 38 37 -28 1
w 38 -37 28 0
w 38 -37 -28 0
w 39 38 29 0
w 39 38 -29 0
w 39 -38 29 1
w 39 -38 -29 0
w 40 39 30 0
w 40 39 -30 1
w 40 -39 30 0
w 40 -39 -30 0
w 41 31 0
w 41 -31 1
w 42 41 32 1
w 42 41 -32 0
w 42 -41 32 0
w 42 -41 -32 1
w 43 42 33 1
w 43 42 -33 0
w 43 -42 33 1
w 43 -42 -33 0
w 44 43 34 0
w 44 43 -34 1
w 44 -43 34 0
w 44 -43 -34 0
w 45 44 35 1
w 45 44 -35 0
w 45 -44 35 0
w 45 -44 -35 0
w 46 45 36 1
w 46 45 -36 1
w 46 -45 36 1
w 46 -45 -36 0
w 47 46 37 0
w 47 46 -37 0
w 47 -46 37 0
w 47 -46 -37 1
w 48 47 38 0
w 48 47 -38 0
w 48 -47 38 1
w 48 -47 -38 0
w 49 48 39 0.0686078
w 49 48 -39 0.486854
w 49 -48 39 0.538641
w 49 -48 -39 0.305123
w 50 49 40 0
w 50 49 -40 1
w 50 -49 40 1
w 50 -49 -40 1
w 51 41 0.136622
w 51 -41 0.225615
w 52 51 42 0.753794
w 52 51 -42 0.344803
w 52 -51 42 0.153511
w 52 -51 -42 0.540603
w 53 52 43 0
w 53 52 -43 1
w 53 -52 43 1
w 53 -52 -43 0
w 54 53 44 1
w 54 53 -44 1
w 54 -53 44 0
w 54 -53 -44 0
w 55 54 45 1
w 55 54 -45 0
w 55 -54 45 1
w 55 -54 -45 0
w 56 55 46 1
w 56 55 -46 1
w 56 -55 46 0
w 56 -55 -46 0
w 57 56 47 1
w 57 56 -47 1
w 57 -56 47 0
w 57 -56 -47 1
w 58 57 48 0.280823
w 58 57 -48 0.0996685
w 58 -57 48 0.175728
w 58 -57 -48 0.434335
w 59 58 49 0
w 59 58 -49 1
w 59 -58 49 1
w 59 -58 -49 1
w 60 59 50 1
w 60 59 -50 1
w 60 -59 50 0
w 60 -59 -50 0
w 61 51 0
w 61 -51 1
w 62 61 52 1
w 62 61 -52 1
w 62 -61 52 1
w 62 -61 -52 0
w 63 62 53 0.0538559
w 63 62 -53 0.193266
w 63 -62 53 0.433883
w 63 -62 -53 0.263108
w 64 63 54 0.887531
w 64 63 -54 0.608983
w 64 -63 54 0.629502
w 64 -63 -54 0.168354
w 65 64 55 1
w 65 64 -55 0
w 65 -64 55 1
w 65 -64 -55 1
w 66 65 56 0.0664572
w 66 65 -56 0.569673
w 66 -65 56 0.962083
w 66 -65 -56 0.502326
w 67 66 57 0
w 67 66 -57 0
w 67 -66 57 1
w 67 -66 -57 0
w 68 67 58 0
w 68 67 -58 1
w 68 -67 58 1
w 68 -67 -58 0
w 69 68 59 0
w 69 68 -59 1
w 69 -68 59 1
w 69 -68 -59 0
w 70 69 60 1
w 70 69 -60 0
w 70 -69 60 0
w 70 -69 -60 1
w 71 61 1
w 71 -61 0
w 72 71 62 0
w 72 71 -62 1
w 72 -71 62 0
w 72 -71 -62 0
w 73 72 63 0.6087
w 73 72 -63 0.468216
w 73 -72 63 0.564599
w 73 -72 -63 0.704946
w 74 73 64 0
w 74 73 -64 1
w 74 -73 64 0
w 74 -73 -64 0
w 75 74 65 1
w 75 74 -65 0
w 75 -74 65 1
w 75 -74 -65 1
w 76 75 66 0.0817251
w 76 75 -66 0.706913
w 76 -75 66 0.0145225
w 76 -75 -66 0.664309
w 77 76 67 1
w 77 76 -67 1
w 77 -76 67 1
w 77 -76 -67 0
w 78 77 68 0.660547
w 78 77 -68 0.306326
w 78 -77 68 0.173857
w 78 -77 -68 0.307164
w 79 78 69 1
w 79 78 -69 1
w 79 -78 69 1
w 79 -78 -69 0
w 80 79 70 0
w 80 79 -70 0
w 80 -79 70 1
w 80 -79 -70 0
w 81 71 0.117742
w 81 -71 0.907349
w 82 81 72 1
w 82 81 -72 1
w 82 -81 72 1
w 82 -81 -72 0
w 83 82 73 0.126011
w 83 82 -73 0.559899
w 83 -82 73 0.794586
w 83 -82 -73 0.0107695
w 84 83 74 0.688299
w 84 83 -74 0.671317
w 84 -83 74 0.273119
w 84 -83 -74 0.862156
w 85 84 75 0.545335
w 85 84 -75 0.885832
w 85 -84 75 0.894345
w 85 -84 -75 0.285768
w 86 85 76 1
w 86 85 -76 1
w 86 -85 76 0
w 86 -85 -76 1
w 87 86 77 1
w 87 86 -77 0
w 87 -86 77 1
w 87 -86 -77 0
w 88 87 78 1
w 88 87 -78 1
w 88 -87 78 0
w 88 -87 -78 0
w 89 88 79 0
w 89 88 -79 1
w 89 -88 79 1
w 89 -88 -79 1
w 90 89 80 0
w 90 89 -80 1
w 90 -89 80 1
w 90 -89 -80 0
w 91 81 1
w 91 -81 0
w 92 91 82 0
w 92 91 -82 1
w 92 -91 82 1
w 92 -91 -82 1
w 93 92 83 0
w 93 92 -83 1
w 93 -92 83 1
w 93 -92 -83 1
w 94 93 84 1
w 94 93 -84 1
w 94 -93 84 0
w 94 -93 -84 0
w 95 94 85 0
w 95 94 -85 0
w 95 -94 85 0
w 95 -94 -85 1
w 96 95 86 0.717633
w 96 95 -86 0.542936
w 96 -95 86 0.384281
w 96 -95 -86 0.101804
w 97 96 87 1
w 97 96 -87 1
w 97 -96 87 0
w 97 -96 -87 1
w 98 97 88 0
w 98 97 -88 1
w 98 -97 88 1
w 98 -97 -88 0
w 99 98 89 0
w 99 98 -89 1
w 99 -98 89 0
w 99 -98 -89 0
w 100 99 90 0
w 100 99 -90 1
w 100 -99 90 1
w 100 -99 -90 0